submitit INFO (2023-05-02 18:51:25,325) - Starting with JobEnvironment(job_id=27744, hostname=cpunode3, local_rank=0(5), node=0(1), global_rank=0(5))
submitit INFO (2023-05-02 18:51:25,325) - Loading pickle: /h/30/pashootan/Matrix-Mult-CP/src/../logs/4/2x1x3_6_May02_18:51:23/27744_submitted.pkl
 ! --------------------------------------------------- CP Optimizer 22.1.1.0 --
 ! Satisfiability problem - 66 variables, 36 constraints
 ! TimeLimit            = 7200
 ! Workers              = 8
 ! LogPeriod            = 10000000
 ! RandomSeed           = 3430
 ! Initial process time : 0.00s (0.00s extraction + 0.00s propagation)
 !  . Log search space  : 104.6 (before), 104.6 (after)
 !  . Memory usage      : 366.6 kB (before), 366.6 kB (after)
 ! Using parallel search with 8 workers.
 ! ----------------------------------------------------------------------------
 !               Branches  Non-fixed    W       Branch decision
 *                   1647  0.04s        8         0  = W4_0
 ! ----------------------------------------------------------------------------
 ! Search completed, 1 solution found.
 ! ----------------------------------------------------------------------------
 ! Number of branches     : 22658
 ! Number of fails        : 10278
 ! Total memory usage     : 6.4 MB (6.3 MB CP Optimizer + 0.0 MB Concert)
 ! Time spent in solve    : 0.04s (0.04s engine + 0.00s extraction)
 ! Search speed (br. / s) : 566450.0
 ! ----------------------------------------------------------------------------
Feasible
Model is valid
Saving solution to: /h/30/pashootan/Matrix-Mult-CP/logs/4/2x1x3_6_May02_18:51:23/27744_0_solution.txt
Saving stats to: /h/30/pashootan/Matrix-Mult-CP/logs/4/2x1x3_6_May02_18:51:23/27744_0_stats.csv
submitit INFO (2023-05-02 18:51:25,788) - Job completed successfully
